DIMACS_lns/graph-1000-722.col
p edge 1000 1832
e 2 566
e 2 445
e 2 494
e 2 493
e 2 720
e 2 467
e 4 400
e 4 127
e 4 813
e 4 951
e 5 399
e 5 414
e 5 546
e 5 960
e 5 459
e 5 180
e 5 159
e 6 638
e 6 161
e 6 756
e 6 714
e 6 614
e 6 642
e 7 270
e 7 844
e 7 396
e 7 423
e 7 783
e 8 630
e 8 322
e 8 895
e 8 451
e 8 678
e 10 851
e 10 667
e 10 490
e 11 565
e 11 933
e 11 709
e 11 686
e 11 912
e 11 331
e 11 678
e 11 209
e 11 842
e 13 279
e 13 739
e 13 551
e 13 431
e 14 261
e 14 180
e 14 281
e 14 109
e 14 958
e 14 232
e 14 748
e 15 143
e 15 749
e 15 804
e 15 465
e 16 968
e 16 130
e 16 856
e 16 152
e 16 787
e 16 233
e 19 327
e 19 445
e 19 104
e 19 440
e 20 444
e 20 100
e 20 101
e 20 265
e 21 130
e 21 956
e 21 57
e 21 398
e 21 740
e 24 393
e 24 196
e 24 729
e 24 350
e 24 665
e 24 623
e 26 847
e 26 589
e 26 961
e 28 845
e 28 361
e 28 484
e 28 518
e 28 589
e 29 218
e 29 833
e 29 914
e 30 489
e 30 82
e 30 715
e 31 810
e 31 509
e 31 660
e 32 185
e 32 564
e 32 201
e 32 684
e 32 313
e 33 963
e 33 148
e 33 139
e 34 121
e 34 820
e 34 485
e 35 709
e 35 278
e 35 627
e 35 274
e 35 817
e 35 296
e 36 731
e 36 382
e 36 233
e 37 221
e 37 790
e 37 345
e 37 732
e 37 269
e 37 967
e 38 499
e 38 752
e 38 99
e 38 289
e 38 875
e 38 652
e 39 126
e 39 876
e 39 388
e 39 116
e 39 612
e 39 245
e 39 113
e 40 490
e 40 881
e 40 44
e 42 652
e 42 655
e 42 126
e 42 225
e 42 102
e 42 736
e 42 914
e 43 200
e 43 993
e 43 353
e 43 939
e 44 900
e 44 685
e 46 300
e 46 529
e 46 884
e 47 109
e 47 431
e 47 112
e 48 296
e 48 301
e 48 139
e 48 637
e 48 786
e 48 658
e 49 180
e 49 387
e 49 95
e 49 649
e 49 369
e 49 559
e 49 893
e 49 428
e 49 385
e 49 99
e 52 535
e 52 633
e 52 797
e 52 548
e 52 124
e 52 642
e 52 192
e 53 606
e 53 246
e 53 314
e 53 313
e 53 529
e 54 80
e 54 748
e 54 241
e 54 210
e 55 161
e 55 831
e 55 502
e 55 378
e 57 847
e 57 677
e 58 611
e 58 614
e 58 233
e 58 156
e 58 437
e 61 256
e 61 302
e 61 656
e 61 752
e 61 868
e 61 778
e 62 970
e 62 848
e 62 591
e 63 973
e 63 317
e 63 907
e 65 344
e 65 134
e 65 550
e 65 418
e 65 884
e 65 892
e 65 985
e 66 733
e 66 116
e 66 910
e 67 842
e 67 518
e 67 717
e 67 376
e 68 952
e 68 723
e 68 887
e 68 643
e 68 93
e 68 864
e 68 83
e 70 196
e 70 673
e 70 95
e 70 504
e 71 434
e 71 117
e 71 783
e 71 625
e 71 731
e 71 823
e 72 130
e 72 124
e 72 238
e 72 493
e 74 76
e 74 300
e 74 522
e 74 859
e 74 713
e 74 637
e 76 518
e 76 656
e 76 783
e 76 578
e 76 218
e 76 525
e 77 270
e 77 876
e 77 537
e 78 504
e 78 106
e 78 315
e 80 566
e 80 602
e 80 586
e 80 177
e 80 325
e 81 534
e 81 322
e 81 282
e 82 309
e 82 134
e 82 576
e 82 723
e 82 405
e 83 565
e 83 659
e 83 720
e 85 191
e 85 129
e 85 448
e 85 661
e 87 543
e 87 424
e 87 909
e 87 851
e 87 115
e 88 289
e 88 888
e 88 751
e 88 496
e 88 495
e 88 232
e 90 657
e 90 675
e 90 380
e 92 415
e 92 694
e 92 412
e 92 646
e 93 801
e 93 907
e 93 697
e 93 926
e 93 384
e 93 269
e 93 978
e 93 629
e 93 916
e 94 918
e 94 709
e 94 787
e 94 804
e 95 423
e 95 420
e 97 939
e 97 989
e 97 955
e 97 733
e 97 590
e 97 953
e 98 446
e 98 869
e 98 520
e 98 113
e 99 396
e 99 304
e 99 245
e 100 999
e 100 657
e 100 444
e 101 209
e 101 299
e 101 673
e 101 268
e 101 325
e 102 406
e 102 336
e 102 848
e 102 600
e 102 164
e 102 485
e 103 730
e 103 472
e 103 900
e 104 150
e 104 501
e 105 211
e 105 282
e 105 654
e 106 752
e 106 847
e 106 990
e 106 709
e 106 211
e 106 886
e 109 953
e 109 147
e 111 268
e 111 360
e 111 308
e 112 817
e 112 508
e 112 885
e 113 452
e 113 501
e 113 327
e 113 903
e 113 346
e 113 543
e 113 251
e 114 732
e 114 265
e 114 260
e 114 480
e 115 566
e 115 220
e 115 955
e 115 698
e 116 801
e 116 585
e 116 206
e 116 283
e 117 643
e 117 943
e 118 616
e 118 414
e 118 213
e 118 663
e 118 840
e 119 219
e 119 787
e 119 718
e 119 898
e 119 658
e 119 807
e 119 327
e 120 599
e 120 678
e 120 843
e 120 778
e 120 167
e 120 198
e 120 917
e 121 275
e 121 632
e 121 900
e 121 562
e 121 536
e 123 273
e 123 495
e 123 962
e 124 843
e 124 420
e 124 219
e 124 140
e 124 215
e 125 217
e 125 233
e 125 601
e 126 402
e 126 555
e 126 447
e 127 481
e 127 436
e 127 663
e 128 849
e 128 270
e 128 178
e 128 628
e 128 337
e 129 817
e 129 692
e 129 629
e 130 853
e 130 742
e 130 583
e 130 281
e 130 142
e 130 330
e 132 481
e 132 502
e 132 780
e 132 952
e 132 404
e 133 346
e 133 533
e 133 503
e 133 428
e 133 821
e 134 740
e 134 746
e 134 193
e 134 738
e 138 278
e 138 664
e 138 993
e 138 172
e 139 805
e 139 683
e 140 653
e 140 398
e 140 289
e 141 500
e 141 341
e 141 774
e 142 780
e 142 483
e 142 692
e 143 289
e 143 605
e 143 714
e 143 290
e 143 917
e 144 858
e 144 855
e 144 425
e 145 358
e 145 729
e 145 847
e 146 370
e 146 876
e 146 650
e 147 939
e 147 797
e 147 869
e 147 857
e 148 307
e 148 295
e 148 567
e 150 270
e 150 541
e 151 654
e 151 850
e 151 845
e 151 859
e 152 896
e 152 885
e 152 981
e 153 680
e 153 716
e 153 773
e 153 469
e 154 542
e 154 783
e 154 813
e 154 510
e 155 653
e 155 864
e 155 431
e 156 455
e 156 378
e 156 990
e 156 536
e 156 918
e 156 227
e 156 627
e 158 833
e 158 551
e 158 955
e 159 784
e 159 427
e 159 347
e 160 736
e 160 451
e 160 380
e 160 471
e 160 166
e 161 816
e 161 560
e 161 877
e 161 417
e 163 595
e 163 732
e 163 926
e 164 248
e 164 992
e 164 991
e 166 279
e 166 578
e 167 457
e 167 742
e 167 496
e 168 394
e 168 320
e 168 310
e 168 567
e 169 840
e 169 293
e 169 303
e 169 681
e 171 180
e 171 489
e 171 975
e 171 396
e 171 407
e 172 504
e 172 464
e 172 738
e 173 338
e 173 667
e 173 814
e 173 451
e 173 306
e 173 664
e 174 801
e 174 860
e 174 274
e 174 840
e 175 457
e 175 309
e 175 957
e 176 963
e 176 465
e 176 496
e 176 369
e 176 407
e 177 825
e 177 245
e 177 602
e 177 533
e 178 249
e 178 539
e 180 729
e 180 704
e 181 566
e 181 725
e 181 279
e 181 358
e 184 448
e 184 809
e 184 415
e 184 537
e 184 387
e 185 709
e 185 389
e 186 867
e 186 599
e 186 230
e 186 417
e 186 590
e 186 392
e 186 786
e 187 661
e 187 310
e 187 295
e 187 867
e 187 301
e 190 325
e 190 504
e 190 667
e 190 311
e 190 756
e 190 878
e 191 808
e 191 945
e 191 512
e 192 606
e 192 597
e 192 896
e 192 322
e 192 314
e 193 601
e 193 548
e 193 491
e 193 687
e 193 894
e 193 309
e 193 932
e 193 771
e 196 654
e 196 455
e 196 537
e 196 553
e 196 712
e 198 404
e 198 909
e 200 965
e 200 571
e 200 448
e 200 654
e 200 905
e 201 385
e 201 905
e 201 649
e 201 305
e 201 704
e 205 740
e 205 467
e 205 736
e 205 251
e 205 969
e 205 667
e 206 320
e 206 561
e 206 286
e 206 767
e 207 306
e 207 996
e 207 721
e 209 646
e 209 767
e 210 652
e 210 436
e 211 489
e 211 710
e 212 358
e 212 717
e 212 980
e 213 414
e 213 784
e 213 661
e 213 555
e 213 820
e 213 698
e 213 956
e 214 657
e 214 248
e 214 330
e 215 726
e 215 646
e 217 681
e 217 408
e 217 488
e 217 641
e 217 656
e 217 668
e 217 700
e 218 221
e 218 405
e 219 797
e 219 310
e 220 825
e 220 660
e 220 510
e 220 428
e 220 658
e 220 589
e 220 634
e 221 565
e 221 656
e 221 353
e 221 658
e 225 281
e 225 440
e 225 599
e 225 731
e 225 667
e 225 718
e 225 288
e 225 843
e 227 270
e 227 610
e 227 379
e 229 649
e 229 650
e 229 548
e 230 684
e 230 367
e 230 658
e 230 623
e 232 562
e 233 959
e 233 329
e 233 871
e 233 565
e 233 414
e 233 338
e 235 749
e 235 467
e 235 375
e 236 612
e 236 502
e 236 809
e 238 689
e 238 642
e 238 393
e 238 406
e 241 960
e 241 605
e 241 357
e 242 909
e 242 933
e 242 585
e 242 968
e 242 807
e 243 752
e 243 494
e 243 993
e 243 696
e 243 774
e 243 909
e 244 613
e 244 683
e 244 887
e 244 602
e 244 945
e 244 557
e 245 298
e 245 464
e 245 734
e 245 657
e 245 283
e 246 296
e 246 906
e 246 345
e 247 860
e 247 430
e 247 448
e 248 698
e 248 588
e 248 435
e 248 427
e 248 526
e 248 961
e 248 264
e 248 304
e 249 849
e 249 835
e 251 520
e 251 784
e 251 820
e 251 668
e 252 434
e 252 291
e 252 828
e 253 548
e 253 820
e 253 792
e 253 272
e 253 963
e 253 281
e 255 672
e 255 892
e 255 571
e 255 400
e 255 432
e 255 710
e 256 886
e 256 559
e 256 680
e 259 584
e 259 413
e 259 689
e 259 371
e 260 448
e 260 277
e 260 571
e 260 650
e 260 875
e 261 414
e 261 751
e 262 947
e 262 773
e 262 850
e 262 830
e 262 438
e 262 835
e 262 356
e 263 828
e 263 369
e 263 523
e 263 494
e 264 483
e 264 844
e 265 853
e 265 496
e 265 336
e 265 377
e 266 758
e 266 578
e 266 622
e 268 700
e 268 928
e 268 960
e 268 863
e 268 424
e 269 910
e 269 449
e 269 731
e 269 792
e 269 962
e 269 395
e 270 578
e 270 615
e 272 996
e 272 359
e 272 623
e 272 783
e 272 847
e 272 708
e 272 892
e 272 777
e 273 650
e 273 871
e 273 790
e 274 405
e 274 397
e 274 523
e 275 290
e 275 910
e 275 961
e 277 992
e 277 540
e 277 369
e 277 544
e 278 638
e 278 611
e 278 834
e 279 347
e 279 470
e 279 733
e 279 632
e 279 953
e 281 498
e 281 877
e 281 790
e 281 673
e 282 371
e 283 896
e 283 544
e 283 527
e 283 529
e 284 527
e 284 463
e 284 639
e 284 613
e 284 631
e 284 388
e 284 743
e 286 436
e 286 994
e 286 393
e 286 847
e 287 644
e 287 308
e 287 290
e 287 981
e 287 674
e 287 300
e 287 723
e 288 329
e 288 816
e 289 629
e 289 527
e 289 585
e 289 349
e 289 361
e 290 585
e 290 528
e 291 656
e 291 347
e 291 927
e 292 575
e 292 785
e 292 984
e 293 506
e 293 427
e 293 850
e 294 572
e 294 660
e 294 997
e 295 935
e 296 724
e 297 916
e 297 666
e 297 697
e 298 596
e 298 830
e 298 336
e 298 610
e 299 775
e 299 512
e 299 832
e 299 802
e 300 970
e 301 768
e 302 498
e 302 912
e 302 404
e 303 988
e 303 817
e 303 867
e 303 766
e 304 665
e 304 600
e 304 817
e 304 635
e 305 849
e 305 918
e 305 947
e 306 471
e 306 369
e 306 650
e 307 314
e 307 406
e 308 653
e 308 969
e 308 547
e 309 975
e 309 575
e 311 855
e 311 708
e 311 906
e 312 660
e 312 639
e 312 875
e 312 449
e 312 763
e 312 340
e 312 437
e 312 793
e 312 767
e 313 523
e 313 344
e 313 867
e 313 493
e 314 562
e 314 721
e 314 607
e 314 379
e 314 976
e 314 791
e 315 907
e 315 677
e 315 516
e 317 611
e 317 360
e 317 490
e 317 961
e 317 386
e 320 684
e 320 892
e 320 805
e 321 775
e 321 895
e 321 681
e 321 746
e 322 327
e 322 988
e 322 856
e 322 675
e 325 408
e 325 433
e 327 942
e 327 564
e 327 488
e 328 775
e 328 967
e 328 361
e 329 828
e 329 534
e 329 877
e 329 905
e 330 673
e 330 610
e 331 519
e 331 638
e 336 618
e 336 947
e 336 663
e 337 793
e 337 720
e 338 361
e 339 641
e 339 793
e 339 567
e 339 877
e 340 878
e 340 442
e 340 506
e 340 514
e 340 771
e 341 748
e 341 350
e 341 978
e 341 984
e 344 840
e 344 438
e 344 576
e 344 900
e 345 418
e 345 481
e 346 575
e 347 809
e 347 494
e 347 356
e 347 649
e 347 539
e 347 713
e 349 495
e 349 437
e 349 407
e 350 715
e 350 659
e 353 612
e 353 915
e 354 799
e 354 716
e 354 672
e 354 647
e 356 935
e 356 909
e 357 907
e 357 988
e 358 417
e 358 852
e 358 647
e 358 562
e 359 774
e 359 390
e 359 469
e 359 917
e 359 578
e 360 547
e 360 786
e 360 979
e 361 884
e 361 506
e 361 488
e 361 628
e 361 648
e 361 976
e 361 518
e 365 420
e 365 734
e 365 994
e 366 438
e 366 433
e 366 813
e 366 494
e 366 965
e 367 451
e 367 533
e 367 863
e 367 727
e 367 599
e 367 904
e 369 427
e 369 552
e 370 868
e 370 569
e 370 456
e 370 420
e 370 888
e 371 965
e 371 756
e 371 487
e 371 878
e 373 851
e 373 425
e 373 625
e 373 583
e 375 866
e 375 585
e 375 428
e 375 388
e 375 646
e 375 738
e 375 550
e 376 596
e 376 848
e 377 740
e 377 904
e 377 715
e 377 528
e 378 650
e 378 445
e 378 428
e 379 856
e 379 925
e 379 857
e 380 912
e 380 731
e 381 986
e 381 630
e 381 939
e 381 408
e 382 987
e 382 583
e 382 663
e 383 526
e 383 671
e 383 686
e 383 622
e 383 612
e 383 420
e 383 813
e 384 412
e 384 768
e 385 889
e 385 962
e 386 843
e 386 632
e 386 478
e 387 888
e 388 906
e 389 449
e 389 737
e 390 848
e 390 763
e 390 771
e 390 935
e 392 668
e 392 466
e 394 464
e 394 876
e 394 534
e 394 686
e 394 858
e 395 721
e 395 566
e 396 679
e 396 505
e 396 743
e 396 768
e 397 802
e 397 677
e 398 700
e 398 904
e 399 737
e 399 554
e 399 466
e 399 723
e 400 870
e 400 823
e 400 966
e 401 557
e 401 674
e 401 725
e 402 559
e 402 882
e 402 665
e 404 488
e 405 638
e 406 528
e 406 584
e 406 663
e 407 844
e 407 905
e 408 618
e 412 427
e 412 414
e 412 818
e 413 449
e 413 688
e 414 725
e 414 648
e 414 602
e 415 945
e 415 937
e 415 447
e 415 650
e 416 714
e 416 436
e 416 491
e 416 738
e 417 675
e 418 694
e 418 619
e 418 865
e 418 628
e 420 859
e 423 985
e 423 683
e 423 943
e 423 710
e 424 937
e 424 881
e 425 661
e 427 534
e 427 991
e 427 473
e 427 688
e 428 877
e 428 963
e 428 434
e 429 601
e 429 991
e 429 848
e 429 984
e 430 730
e 430 986
e 431 940
e 432 748
e 432 743
e 433 856
e 433 817
e 433 943
e 433 464
e 433 644
e 433 459
e 433 625
e 434 994
e 434 738
e 435 903
e 435 561
e 435 959
e 435 996
e 435 927
e 436 674
e 437 541
e 437 564
e 437 816
e 437 807
e 437 881
e 437 441
e 438 605
e 438 828
e 438 659
e 438 932
e 440 625
e 440 481
e 440 680
e 440 809
e 441 597
e 441 583
e 441 509
e 441 823
e 441 618
e 441 679
e 442 817
e 442 483
e 444 688
e 444 989
e 444 584
e 444 947
e 444 658
e 445 484
e 445 684
e 446 487
e 446 555
e 447 830
e 447 583
e 449 623
e 449 866
e 449 865
e 452 533
e 452 658
e 455 927
e 456 900
e 456 596
e 456 473
e 457 856
e 457 934
e 457 595
e 457 550
e 459 667
e 459 623
e 460 993
e 460 997
e 460 525
e 460 527
e 463 748
e 463 672
e 464 591
e 464 727
e 465 502
e 466 548
e 466 987
e 466 675
e 467 965
e 467 633
e 467 849
e 468 593
e 468 934
e 468 623
e 469 567
e 469 525
e 469 583
e 469 709
e 470 937
e 470 870
e 470 659
e 470 539
e 470 607
e 471 700
e 472 602
e 472 781
e 472 685
e 472 807
e 473 991
e 473 616
e 473 892
e 478 826
e 478 895
e 478 655
e 478 709
e 480 968
e 480 875
e 481 766
e 481 817
e 481 649
e 484 543
e 484 979
e 484 499
e 485 940
e 485 557
e 485 692
e 487 727
e 487 826
e 489 668
e 490 565
e 490 694
e 490 714
e 491 937
e 491 976
e 493 631
e 493 889
e 493 901
e 494 565
e 494 733
e 496 809
e 496 526
e 496 615
e 498 767
e 498 713
e 499 665
e 499 932
e 500 885
e 500 503
e 501 958
e 501 520
e 502 651
e 502 576
e 503 984
e 503 643
e 503 704
e 504 627
e 504 839
e 505 880
e 505 519
e 505 550
e 506 556
e 506 898
e 508 856
e 508 632
e 508 573
e 509 734
e 509 981
e 509 696
e 509 915
e 509 809
e 509 978
e 510 613
e 510 825
e 510 576
e 510 713
e 512 654
e 512 673
e 514 671
e 514 768
e 516 943
e 516 786
e 516 797
e 518 777
e 518 653
e 518 553
e 518 667
e 518 600
e 519 871
e 519 726
e 522 773
e 522 807
e 522 539
e 523 843
e 523 956
e 523 647
e 523 795
e 523 894
e 525 591
e 526 653
e 527 555
e 527 878
e 528 881
e 528 547
e 528 844
e 528 935
e 529 900
e 533 643
e 533 758
e 534 777
e 534 978
e 534 758
e 535 754
e 535 918
e 536 886
e 537 698
e 539 816
e 539 687
e 540 600
e 540 689
e 541 658
e 541 914
e 542 873
e 542 569
e 542 708
e 542 984
e 543 649
e 543 622
e 544 906
e 544 584
e 544 831
e 545 802
e 545 791
e 545 778
e 546 669
e 546 656
e 547 669
e 548 643
e 548 797
e 549 940
e 549 583
e 549 628
e 550 940
e 551 785
e 551 773
e 551 752
e 552 736
e 552 715
e 553 767
e 553 729
e 553 572
e 554 624
e 554 868
e 555 715
e 556 704
e 556 915
e 556 678
e 557 957
e 559 736
e 559 954
e 559 963
e 559 973
e 559 851
e 560 868
e 560 700
e 561 883
e 561 896
e 564 987
e 564 700
e 565 892
e 565 883
e 566 898
e 567 962
e 569 918
e 569 784
e 571 979
e 572 873
e 572 864
e 573 960
e 573 597
e 575 873
e 575 891
e 575 947
e 576 991
e 578 991
e 583 669
e 583 891
e 583 652
e 583 749
e 584 898
e 584 822
e 585 884
e 586 763
e 586 952
e 586 657
e 587 724
e 587 928
e 587 803
e 588 834
e 588 843
e 589 973
e 589 758
e 589 978
e 590 935
e 591 696
e 591 691
e 593 674
e 593 790
e 593 789
e 593 667
e 593 960
e 593 742
e 595 882
e 596 758
e 599 791
e 599 999
e 599 615
e 600 849
e 601 926
e 601 885
e 602 969
e 602 817
e 605 880
e 605 817
e 605 786
e 606 943
e 606 625
e 606 895
e 606 903
e 606 648
e 606 850
e 607 814
e 609 785
e 609 692
e 609 926
e 611 880
e 611 951
e 611 629
e 612 809
e 613 957
e 614 900
e 616 850
e 619 891
e 619 771
e 620 966
e 620 868
e 620 768
e 620 927
e 624 748
e 624 810
e 625 731
e 626 786
e 626 812
e 626 699
e 627 687
e 627 657
e 627 875
e 630 802
e 631 943
e 632 643
e 633 973
e 633 742
e 634 906
e 634 965
e 635 789
e 635 669
e 635 900
e 635 865
e 635 967
e 637 657
e 638 849
e 639 774
e 639 712
e 641 865
e 641 727
e 642 708
e 642 656
e 642 832
e 643 816
e 643 689
e 643 885
e 643 694
e 644 742
e 646 739
e 646 855
e 646 978
e 647 685
e 647 835
e 647 918
e 648 784
e 649 691
e 650 960
e 650 715
e 650 694
e 651 880
e 651 712
e 653 996
e 653 793
e 654 823
e 655 812
e 656 933
e 657 868
e 657 730
e 657 801
e 657 877
e 657 925
e 657 746
e 658 937
e 658 839
e 659 694
e 660 723
e 660 793
e 661 945
e 663 991
e 664 873
e 665 758
e 666 933
e 666 681
e 669 774
e 671 797
e 672 731
e 673 925
e 673 675
e 674 852
e 674 857
e 674 858
e 674 987
e 677 918
e 677 849
e 677 821
e 677 928
e 679 883
e 680 801
e 683 964
e 684 742
e 684 945
e 687 699
e 688 989
e 688 729
e 688 906
e 688 984
e 688 818
e 689 961
e 691 709
e 691 794
e 691 766
e 694 997
e 694 699
e 696 833
e 696 901
e 697 933
e 698 737
e 698 973
e 699 843
e 699 715
e 709 954
e 709 739
e 714 892
e 714 826
e 715 845
e 716 909
e 717 885
e 717 878
e 717 901
e 718 794
e 720 896
e 721 940
e 721 858
e 721 999
e 723 737
e 723 991
e 724 810
e 726 954
e 726 789
e 729 793
e 730 822
e 732 858
e 736 905
e 736 964
e 737 994
e 737 934
e 740 784
e 742 781
e 742 756
e 746 887
e 748 799
e 749 822
e 751 834
e 751 863
e 754 856
e 754 817
e 754 799
e 758 857
e 763 893
e 763 885
e 767 773
e 767 951
e 768 857
e 771 802
e 774 852
e 775 976
e 777 810
e 777 980
e 777 828
e 778 992
e 780 795
e 781 961
e 783 784
e 785 997
e 787 802
e 790 928
e 792 826
e 792 997
e 793 969
e 794 960
e 794 980
e 794 864
e 795 870
e 795 994
e 797 825
e 797 942
e 803 807
e 803 968
e 804 967
e 805 888
e 808 821
e 808 927
e 809 839
e 809 980
e 809 996
e 810 864
e 812 853
e 813 927
e 814 856
e 814 894
e 814 975
e 816 826
e 817 818
e 817 916
e 822 900
e 823 866
e 831 832
e 831 901
e 833 884
e 833 927
e 835 964
e 842 889
e 842 925
e 843 997
e 843 964
e 844 869
e 847 848
e 847 986
e 849 892
e 849 932
e 849 857
e 849 925
e 850 935
e 851 990
e 851 885
e 852 992
e 855 942
e 855 959
e 857 881
e 857 865
e 858 964
e 859 985
e 859 880
e 860 954
e 860 970
e 866 988
e 867 969
e 867 917
e 873 875
e 875 912
e 875 877
e 882 884
e 885 932
e 888 966
e 893 933
e 896 958
e 914 978
e 914 916
e 914 963
e 914 969
e 914 991
e 915 960
e 918 979
e 926 967
e 963 981
e 968 997
