txt_Ins/graph-1000-722.txt
n 1000
e 1 565
e 1 444
e 1 493
e 1 492
e 1 719
e 1 466
e 3 399
e 3 126
e 3 812
e 3 950
e 4 398
e 4 413
e 4 545
e 4 959
e 4 458
e 4 179
e 4 158
e 5 637
e 5 160
e 5 755
e 5 713
e 5 613
e 5 641
e 6 269
e 6 843
e 6 395
e 6 422
e 6 782
e 7 629
e 7 321
e 7 894
e 7 450
e 7 677
e 9 850
e 9 666
e 9 489
e 10 564
e 10 932
e 10 708
e 10 685
e 10 911
e 10 330
e 10 677
e 10 208
e 10 841
e 12 278
e 12 738
e 12 550
e 12 430
e 13 260
e 13 179
e 13 280
e 13 108
e 13 957
e 13 231
e 13 747
e 14 142
e 14 748
e 14 803
e 14 464
e 15 967
e 15 129
e 15 855
e 15 151
e 15 786
e 15 232
e 18 326
e 18 444
e 18 103
e 18 439
e 19 443
e 19 99
e 19 100
e 19 264
e 20 129
e 20 955
e 20 56
e 20 397
e 20 739
e 23 392
e 23 195
e 23 728
e 23 349
e 23 664
e 23 622
e 25 846
e 25 588
e 25 960
e 27 844
e 27 360
e 27 483
e 27 517
e 27 588
e 28 217
e 28 832
e 28 913
e 29 488
e 29 81
e 29 714
e 30 809
e 30 508
e 30 659
e 31 184
e 31 563
e 31 200
e 31 683
e 31 312
e 32 962
e 32 147
e 32 138
e 33 120
e 33 819
e 33 484
e 34 708
e 34 277
e 34 626
e 34 273
e 34 816
e 34 295
e 35 730
e 35 381
e 35 232
e 36 220
e 36 789
e 36 344
e 36 731
e 36 268
e 36 966
e 37 498
e 37 751
e 37 98
e 37 288
e 37 874
e 37 651
e 38 125
e 38 875
e 38 387
e 38 115
e 38 611
e 38 244
e 38 112
e 39 489
e 39 880
e 39 43
e 41 651
e 41 654
e 41 125
e 41 224
e 41 101
e 41 735
e 41 913
e 42 199
e 42 992
e 42 352
e 42 938
e 43 899
e 43 684
e 45 299
e 45 528
e 45 883
e 46 108
e 46 430
e 46 111
e 47 295
e 47 300
e 47 138
e 47 636
e 47 785
e 47 657
e 48 179
e 48 386
e 48 94
e 48 648
e 48 368
e 48 558
e 48 892
e 48 427
e 48 384
e 48 98
e 51 534
e 51 632
e 51 796
e 51 547
e 51 123
e 51 641
e 51 191
e 52 605
e 52 245
e 52 313
e 52 312
e 52 528
e 53 79
e 53 747
e 53 240
e 53 209
e 54 160
e 54 830
e 54 501
e 54 377
e 56 846
e 56 676
e 57 610
e 57 613
e 57 232
e 57 155
e 57 436
e 60 255
e 60 301
e 60 655
e 60 751
e 60 867
e 60 777
e 61 969
e 61 847
e 61 590
e 62 972
e 62 316
e 62 906
e 64 343
e 64 133
e 64 549
e 64 417
e 64 883
e 64 891
e 64 984
e 65 732
e 65 115
e 65 909
e 66 841
e 66 517
e 66 716
e 66 375
e 67 951
e 67 722
e 67 886
e 67 642
e 67 92
e 67 863
e 67 82
e 69 195
e 69 672
e 69 94
e 69 503
e 70 433
e 70 116
e 70 782
e 70 624
e 70 730
e 70 822
e 71 129
e 71 123
e 71 237
e 71 492
e 73 75
e 73 299
e 73 521
e 73 858
e 73 712
e 73 636
e 75 517
e 75 655
e 75 782
e 75 577
e 75 217
e 75 524
e 76 269
e 76 875
e 76 536
e 77 503
e 77 105
e 77 314
e 79 565
e 79 601
e 79 585
e 79 176
e 79 324
e 80 533
e 80 321
e 80 281
e 81 308
e 81 133
e 81 575
e 81 722
e 81 404
e 82 564
e 82 658
e 82 719
e 84 190
e 84 128
e 84 447
e 84 660
e 86 542
e 86 423
e 86 908
e 86 850
e 86 114
e 87 288
e 87 887
e 87 750
e 87 495
e 87 494
e 87 231
e 89 656
e 89 674
e 89 379
e 91 414
e 91 693
e 91 411
e 91 645
e 92 800
e 92 906
e 92 696
e 92 925
e 92 383
e 92 268
e 92 977
e 92 628
e 92 915
e 93 917
e 93 708
e 93 786
e 93 803
e 94 422
e 94 419
e 96 938
e 96 988
e 96 954
e 96 732
e 96 589
e 96 952
e 97 445
e 97 868
e 97 519
e 97 112
e 98 395
e 98 303
e 98 244
e 99 998
e 99 656
e 99 443
e 100 208
e 100 298
e 100 672
e 100 267
e 100 324
e 101 405
e 101 335
e 101 847
e 101 599
e 101 163
e 101 484
e 102 729
e 102 471
e 102 899
e 103 149
e 103 500
e 104 210
e 104 281
e 104 653
e 105 751
e 105 846
e 105 989
e 105 708
e 105 210
e 105 885
e 108 952
e 108 146
e 110 267
e 110 359
e 110 307
e 111 816
e 111 507
e 111 884
e 112 451
e 112 500
e 112 326
e 112 902
e 112 345
e 112 542
e 112 250
e 113 731
e 113 264
e 113 259
e 113 479
e 114 565
e 114 219
e 114 954
e 114 697
e 115 800
e 115 584
e 115 205
e 115 282
e 116 642
e 116 942
e 117 615
e 117 413
e 117 212
e 117 662
e 117 839
e 118 218
e 118 786
e 118 717
e 118 897
e 118 657
e 118 806
e 118 326
e 119 598
e 119 677
e 119 842
e 119 777
e 119 166
e 119 197
e 119 916
e 120 274
e 120 631
e 120 899
e 120 561
e 120 535
e 122 272
e 122 494
e 122 961
e 123 842
e 123 419
e 123 218
e 123 139
e 123 214
e 124 216
e 124 232
e 124 600
e 125 401
e 125 554
e 125 446
e 126 480
e 126 435
e 126 662
e 127 848
e 127 269
e 127 177
e 127 627
e 127 336
e 128 816
e 128 691
e 128 628
e 129 852
e 129 741
e 129 582
e 129 280
e 129 141
e 129 329
e 131 480
e 131 501
e 131 779
e 131 951
e 131 403
e 132 345
e 132 532
e 132 502
e 132 427
e 132 820
e 133 739
e 133 745
e 133 192
e 133 737
e 137 277
e 137 663
e 137 992
e 137 171
e 138 804
e 138 682
e 139 652
e 139 397
e 139 288
e 140 499
e 140 340
e 140 773
e 141 779
e 141 482
e 141 691
e 142 288
e 142 604
e 142 713
e 142 289
e 142 916
e 143 857
e 143 854
e 143 424
e 144 357
e 144 728
e 144 846
e 145 369
e 145 875
e 145 649
e 146 938
e 146 796
e 146 868
e 146 856
e 147 306
e 147 294
e 147 566
e 149 269
e 149 540
e 150 653
e 150 849
e 150 844
e 150 858
e 151 895
e 151 884
e 151 980
e 152 679
e 152 715
e 152 772
e 152 468
e 153 541
e 153 782
e 153 812
e 153 509
e 154 652
e 154 863
e 154 430
e 155 454
e 155 377
e 155 989
e 155 535
e 155 917
e 155 226
e 155 626
e 157 832
e 157 550
e 157 954
e 158 783
e 158 426
e 158 346
e 159 735
e 159 450
e 159 379
e 159 470
e 159 165
e 160 815
e 160 559
e 160 876
e 160 416
e 162 594
e 162 731
e 162 925
e 163 247
e 163 991
e 163 990
e 165 278
e 165 577
e 166 456
e 166 741
e 166 495
e 167 393
e 167 319
e 167 309
e 167 566
e 168 839
e 168 292
e 168 302
e 168 680
e 170 179
e 170 488
e 170 974
e 170 395
e 170 406
e 171 503
e 171 463
e 171 737
e 172 337
e 172 666
e 172 813
e 172 450
e 172 305
e 172 663
e 173 800
e 173 859
e 173 273
e 173 839
e 174 456
e 174 308
e 174 956
e 175 962
e 175 464
e 175 495
e 175 368
e 175 406
e 176 824
e 176 244
e 176 601
e 176 532
e 177 248
e 177 538
e 179 728
e 179 703
e 180 565
e 180 724
e 180 278
e 180 357
e 183 447
e 183 808
e 183 414
e 183 536
e 183 386
e 184 708
e 184 388
e 185 866
e 185 598
e 185 229
e 185 416
e 185 589
e 185 391
e 185 785
e 186 660
e 186 309
e 186 294
e 186 866
e 186 300
e 189 324
e 189 503
e 189 666
e 189 310
e 189 755
e 189 877
e 190 807
e 190 944
e 190 511
e 191 605
e 191 596
e 191 895
e 191 321
e 191 313
e 192 600
e 192 547
e 192 490
e 192 686
e 192 893
e 192 308
e 192 931
e 192 770
e 195 653
e 195 454
e 195 536
e 195 552
e 195 711
e 197 403
e 197 908
e 199 964
e 199 570
e 199 447
e 199 653
e 199 904
e 200 384
e 200 904
e 200 648
e 200 304
e 200 703
e 204 739
e 204 466
e 204 735
e 204 250
e 204 968
e 204 666
e 205 319
e 205 560
e 205 285
e 205 766
e 206 305
e 206 995
e 206 720
e 208 645
e 208 766
e 209 651
e 209 435
e 210 488
e 210 709
e 211 357
e 211 716
e 211 979
e 212 413
e 212 783
e 212 660
e 212 554
e 212 819
e 212 697
e 212 955
e 213 656
e 213 247
e 213 329
e 214 725
e 214 645
e 216 680
e 216 407
e 216 487
e 216 640
e 216 655
e 216 667
e 216 699
e 217 220
e 217 404
e 218 796
e 218 309
e 219 824
e 219 659
e 219 509
e 219 427
e 219 657
e 219 588
e 219 633
e 220 564
e 220 655
e 220 352
e 220 657
e 224 280
e 224 439
e 224 598
e 224 730
e 224 666
e 224 717
e 224 287
e 224 842
e 226 269
e 226 609
e 226 378
e 228 648
e 228 649
e 228 547
e 229 683
e 229 366
e 229 657
e 229 622
e 231 561
e 232 958
e 232 328
e 232 870
e 232 564
e 232 413
e 232 337
e 234 748
e 234 466
e 234 374
e 235 611
e 235 501
e 235 808
e 237 688
e 237 641
e 237 392
e 237 405
e 240 959
e 240 604
e 240 356
e 241 908
e 241 932
e 241 584
e 241 967
e 241 806
e 242 751
e 242 493
e 242 992
e 242 695
e 242 773
e 242 908
e 243 612
e 243 682
e 243 886
e 243 601
e 243 944
e 243 556
e 244 297
e 244 463
e 244 733
e 244 656
e 244 282
e 245 295
e 245 905
e 245 344
e 246 859
e 246 429
e 246 447
e 247 697
e 247 587
e 247 434
e 247 426
e 247 525
e 247 960
e 247 263
e 247 303
e 248 848
e 248 834
e 250 519
e 250 783
e 250 819
e 250 667
e 251 433
e 251 290
e 251 827
e 252 547
e 252 819
e 252 791
e 252 271
e 252 962
e 252 280
e 254 671
e 254 891
e 254 570
e 254 399
e 254 431
e 254 709
e 255 885
e 255 558
e 255 679
e 258 583
e 258 412
e 258 688
e 258 370
e 259 447
e 259 276
e 259 570
e 259 649
e 259 874
e 260 413
e 260 750
e 261 946
e 261 772
e 261 849
e 261 829
e 261 437
e 261 834
e 261 355
e 262 827
e 262 368
e 262 522
e 262 493
e 263 482
e 263 843
e 264 852
e 264 495
e 264 335
e 264 376
e 265 757
e 265 577
e 265 621
e 267 699
e 267 927
e 267 959
e 267 862
e 267 423
e 268 909
e 268 448
e 268 730
e 268 791
e 268 961
e 268 394
e 269 577
e 269 614
e 271 995
e 271 358
e 271 622
e 271 782
e 271 846
e 271 707
e 271 891
e 271 776
e 272 649
e 272 870
e 272 789
e 273 404
e 273 396
e 273 522
e 274 289
e 274 909
e 274 960
e 276 991
e 276 539
e 276 368
e 276 543
e 277 637
e 277 610
e 277 833
e 278 346
e 278 469
e 278 732
e 278 631
e 278 952
e 280 497
e 280 876
e 280 789
e 280 672
e 281 370
e 282 895
e 282 543
e 282 526
e 282 528
e 283 526
e 283 462
e 283 638
e 283 612
e 283 630
e 283 387
e 283 742
e 285 435
e 285 993
e 285 392
e 285 846
e 286 643
e 286 307
e 286 289
e 286 980
e 286 673
e 286 299
e 286 722
e 287 328
e 287 815
e 288 628
e 288 526
e 288 584
e 288 348
e 288 360
e 289 584
e 289 527
e 290 655
e 290 346
e 290 926
e 291 574
e 291 784
e 291 983
e 292 505
e 292 426
e 292 849
e 293 571
e 293 659
e 293 996
e 294 934
e 295 723
e 296 915
e 296 665
e 296 696
e 297 595
e 297 829
e 297 335
e 297 609
e 298 774
e 298 511
e 298 831
e 298 801
e 299 969
e 300 767
e 301 497
e 301 911
e 301 403
e 302 987
e 302 816
e 302 866
e 302 765
e 303 664
e 303 599
e 303 816
e 303 634
e 304 848
e 304 917
e 304 946
e 305 470
e 305 368
e 305 649
e 306 313
e 306 405
e 307 652
e 307 968
e 307 546
e 308 974
e 308 574
e 310 854
e 310 707
e 310 905
e 311 659
e 311 638
e 311 874
e 311 448
e 311 762
e 311 339
e 311 436
e 311 792
e 311 766
e 312 522
e 312 343
e 312 866
e 312 492
e 313 561
e 313 720
e 313 606
e 313 378
e 313 975
e 313 790
e 314 906
e 314 676
e 314 515
e 316 610
e 316 359
e 316 489
e 316 960
e 316 385
e 319 683
e 319 891
e 319 804
e 320 774
e 320 894
e 320 680
e 320 745
e 321 326
e 321 987
e 321 855
e 321 674
e 324 407
e 324 432
e 326 941
e 326 563
e 326 487
e 327 774
e 327 966
e 327 360
e 328 827
e 328 533
e 328 876
e 328 904
e 329 672
e 329 609
e 330 518
e 330 637
e 335 617
e 335 946
e 335 662
e 336 792
e 336 719
e 337 360
e 338 640
e 338 792
e 338 566
e 338 876
e 339 877
e 339 441
e 339 505
e 339 513
e 339 770
e 340 747
e 340 349
e 340 977
e 340 983
e 343 839
e 343 437
e 343 575
e 343 899
e 344 417
e 344 480
e 345 574
e 346 808
e 346 493
e 346 355
e 346 648
e 346 538
e 346 712
e 348 494
e 348 436
e 348 406
e 349 714
e 349 658
e 352 611
e 352 914
e 353 798
e 353 715
e 353 671
e 353 646
e 355 934
e 355 908
e 356 906
e 356 987
e 357 416
e 357 851
e 357 646
e 357 561
e 358 773
e 358 389
e 358 468
e 358 916
e 358 577
e 359 546
e 359 785
e 359 978
e 360 883
e 360 505
e 360 487
e 360 627
e 360 647
e 360 975
e 360 517
e 364 419
e 364 733
e 364 993
e 365 437
e 365 432
e 365 812
e 365 493
e 365 964
e 366 450
e 366 532
e 366 862
e 366 726
e 366 598
e 366 903
e 368 426
e 368 551
e 369 867
e 369 568
e 369 455
e 369 419
e 369 887
e 370 964
e 370 755
e 370 486
e 370 877
e 372 850
e 372 424
e 372 624
e 372 582
e 374 865
e 374 584
e 374 427
e 374 387
e 374 645
e 374 737
e 374 549
e 375 595
e 375 847
e 376 739
e 376 903
e 376 714
e 376 527
e 377 649
e 377 444
e 377 427
e 378 855
e 378 924
e 378 856
e 379 911
e 379 730
e 380 985
e 380 629
e 380 938
e 380 407
e 381 986
e 381 582
e 381 662
e 382 525
e 382 670
e 382 685
e 382 621
e 382 611
e 382 419
e 382 812
e 383 411
e 383 767
e 384 888
e 384 961
e 385 842
e 385 631
e 385 477
e 386 887
e 387 905
e 388 448
e 388 736
e 389 847
e 389 762
e 389 770
e 389 934
e 391 667
e 391 465
e 393 463
e 393 875
e 393 533
e 393 685
e 393 857
e 394 720
e 394 565
e 395 678
e 395 504
e 395 742
e 395 767
e 396 801
e 396 676
e 397 699
e 397 903
e 398 736
e 398 553
e 398 465
e 398 722
e 399 869
e 399 822
e 399 965
e 400 556
e 400 673
e 400 724
e 401 558
e 401 881
e 401 664
e 403 487
e 404 637
e 405 527
e 405 583
e 405 662
e 406 843
e 406 904
e 407 617
e 411 426
e 411 413
e 411 817
e 412 448
e 412 687
e 413 724
e 413 647
e 413 601
e 414 944
e 414 936
e 414 446
e 414 649
e 415 713
e 415 435
e 415 490
e 415 737
e 416 674
e 417 693
e 417 618
e 417 864
e 417 627
e 419 858
e 422 984
e 422 682
e 422 942
e 422 709
e 423 936
e 423 880
e 424 660
e 426 533
e 426 990
e 426 472
e 426 687
e 427 876
e 427 962
e 427 433
e 428 600
e 428 990
e 428 847
e 428 983
e 429 729
e 429 985
e 430 939
e 431 747
e 431 742
e 432 855
e 432 816
e 432 942
e 432 463
e 432 643
e 432 458
e 432 624
e 433 993
e 433 737
e 434 902
e 434 560
e 434 958
e 434 995
e 434 926
e 435 673
e 436 540
e 436 563
e 436 815
e 436 806
e 436 880
e 436 440
e 437 604
e 437 827
e 437 658
e 437 931
e 439 624
e 439 480
e 439 679
e 439 808
e 440 596
e 440 582
e 440 508
e 440 822
e 440 617
e 440 678
e 441 816
e 441 482
e 443 687
e 443 988
e 443 583
e 443 946
e 443 657
e 444 483
e 444 683
e 445 486
e 445 554
e 446 829
e 446 582
e 448 622
e 448 865
e 448 864
e 451 532
e 451 657
e 454 926
e 455 899
e 455 595
e 455 472
e 456 855
e 456 933
e 456 594
e 456 549
e 458 666
e 458 622
e 459 992
e 459 996
e 459 524
e 459 526
e 462 747
e 462 671
e 463 590
e 463 726
e 464 501
e 465 547
e 465 986
e 465 674
e 466 964
e 466 632
e 466 848
e 467 592
e 467 933
e 467 622
e 468 566
e 468 524
e 468 582
e 468 708
e 469 936
e 469 869
e 469 658
e 469 538
e 469 606
e 470 699
e 471 601
e 471 780
e 471 684
e 471 806
e 472 990
e 472 615
e 472 891
e 477 825
e 477 894
e 477 654
e 477 708
e 479 967
e 479 874
e 480 765
e 480 816
e 480 648
e 483 542
e 483 978
e 483 498
e 484 939
e 484 556
e 484 691
e 486 726
e 486 825
e 488 667
e 489 564
e 489 693
e 489 713
e 490 936
e 490 975
e 492 630
e 492 888
e 492 900
e 493 564
e 493 732
e 495 808
e 495 525
e 495 614
e 497 766
e 497 712
e 498 664
e 498 931
e 499 884
e 499 502
e 500 957
e 500 519
e 501 650
e 501 575
e 502 983
e 502 642
e 502 703
e 503 626
e 503 838
e 504 879
e 504 518
e 504 549
e 505 555
e 505 897
e 507 855
e 507 631
e 507 572
e 508 733
e 508 980
e 508 695
e 508 914
e 508 808
e 508 977
e 509 612
e 509 824
e 509 575
e 509 712
e 511 653
e 511 672
e 513 670
e 513 767
e 515 942
e 515 785
e 515 796
e 517 776
e 517 652
e 517 552
e 517 666
e 517 599
e 518 870
e 518 725
e 521 772
e 521 806
e 521 538
e 522 842
e 522 955
e 522 646
e 522 794
e 522 893
e 524 590
e 525 652
e 526 554
e 526 877
e 527 880
e 527 546
e 527 843
e 527 934
e 528 899
e 532 642
e 532 757
e 533 776
e 533 977
e 533 757
e 534 753
e 534 917
e 535 885
e 536 697
e 538 815
e 538 686
e 539 599
e 539 688
e 540 657
e 540 913
e 541 872
e 541 568
e 541 707
e 541 983
e 542 648
e 542 621
e 543 905
e 543 583
e 543 830
e 544 801
e 544 790
e 544 777
e 545 668
e 545 655
e 546 668
e 547 642
e 547 796
e 548 939
e 548 582
e 548 627
e 549 939
e 550 784
e 550 772
e 550 751
e 551 735
e 551 714
e 552 766
e 552 728
e 552 571
e 553 623
e 553 867
e 554 714
e 555 703
e 555 914
e 555 677
e 556 956
e 558 735
e 558 953
e 558 962
e 558 972
e 558 850
e 559 867
e 559 699
e 560 882
e 560 895
e 563 986
e 563 699
e 564 891
e 564 882
e 565 897
e 566 961
e 568 917
e 568 783
e 570 978
e 571 872
e 571 863
e 572 959
e 572 596
e 574 872
e 574 890
e 574 946
e 575 990
e 577 990
e 582 668
e 582 890
e 582 651
e 582 748
e 583 897
e 583 821
e 584 883
e 585 762
e 585 951
e 585 656
e 586 723
e 586 927
e 586 802
e 587 833
e 587 842
e 588 972
e 588 757
e 588 977
e 589 934
e 590 695
e 590 690
e 592 673
e 592 789
e 592 788
e 592 666
e 592 959
e 592 741
e 594 881
e 595 757
e 598 790
e 598 998
e 598 614
e 599 848
e 600 925
e 600 884
e 601 968
e 601 816
e 604 879
e 604 816
e 604 785
e 605 942
e 605 624
e 605 894
e 605 902
e 605 647
e 605 849
e 606 813
e 608 784
e 608 691
e 608 925
e 610 879
e 610 950
e 610 628
e 611 808
e 612 956
e 613 899
e 615 849
e 618 890
e 618 770
e 619 965
e 619 867
e 619 767
e 619 926
e 623 747
e 623 809
e 624 730
e 625 785
e 625 811
e 625 698
e 626 686
e 626 656
e 626 874
e 629 801
e 630 942
e 631 642
e 632 972
e 632 741
e 633 905
e 633 964
e 634 788
e 634 668
e 634 899
e 634 864
e 634 966
e 636 656
e 637 848
e 638 773
e 638 711
e 640 864
e 640 726
e 641 707
e 641 655
e 641 831
e 642 815
e 642 688
e 642 884
e 642 693
e 643 741
e 645 738
e 645 854
e 645 977
e 646 684
e 646 834
e 646 917
e 647 783
e 648 690
e 649 959
e 649 714
e 649 693
e 650 879
e 650 711
e 652 995
e 652 792
e 653 822
e 654 811
e 655 932
e 656 867
e 656 729
e 656 800
e 656 876
e 656 924
e 656 745
e 657 936
e 657 838
e 658 693
e 659 722
e 659 792
e 660 944
e 662 990
e 663 872
e 664 757
e 665 932
e 665 680
e 668 773
e 670 796
e 671 730
e 672 924
e 672 674
e 673 851
e 673 856
e 673 857
e 673 986
e 676 917
e 676 848
e 676 820
e 676 927
e 678 882
e 679 800
e 682 963
e 683 741
e 683 944
e 686 698
e 687 988
e 687 728
e 687 905
e 687 983
e 687 817
e 688 960
e 690 708
e 690 793
e 690 765
e 693 996
e 693 698
e 695 832
e 695 900
e 696 932
e 697 736
e 697 972
e 698 842
e 698 714
e 708 953
e 708 738
e 713 891
e 713 825
e 714 844
e 715 908
e 716 884
e 716 877
e 716 900
e 717 793
e 719 895
e 720 939
e 720 857
e 720 998
e 722 736
e 722 990
e 723 809
e 725 953
e 725 788
e 728 792
e 729 821
e 731 857
e 735 904
e 735 963
e 736 993
e 736 933
e 739 783
e 741 780
e 741 755
e 745 886
e 747 798
e 748 821
e 750 833
e 750 862
e 753 855
e 753 816
e 753 798
e 757 856
e 762 892
e 762 884
e 766 772
e 766 950
e 767 856
e 770 801
e 773 851
e 774 975
e 776 809
e 776 979
e 776 827
e 777 991
e 779 794
e 780 960
e 782 783
e 784 996
e 786 801
e 789 927
e 791 825
e 791 996
e 792 968
e 793 959
e 793 979
e 793 863
e 794 869
e 794 993
e 796 824
e 796 941
e 802 806
e 802 967
e 803 966
e 804 887
e 807 820
e 807 926
e 808 838
e 808 979
e 808 995
e 809 863
e 811 852
e 812 926
e 813 855
e 813 893
e 813 974
e 815 825
e 816 817
e 816 915
e 821 899
e 822 865
e 830 831
e 830 900
e 832 883
e 832 926
e 834 963
e 841 888
e 841 924
e 842 996
e 842 963
e 843 868
e 846 847
e 846 985
e 848 891
e 848 931
e 848 856
e 848 924
e 849 934
e 850 989
e 850 884
e 851 991
e 854 941
e 854 958
e 856 880
e 856 864
e 857 963
e 858 984
e 858 879
e 859 953
e 859 969
e 865 987
e 866 968
e 866 916
e 872 874
e 874 911
e 874 876
e 881 883
e 884 931
e 887 965
e 892 932
e 895 957
e 913 977
e 913 915
e 913 962
e 913 968
e 913 990
e 914 959
e 917 978
e 925 966
e 962 980
e 967 996
